Default LOCALE: LC_CTYPE=en_US.UTF-8;LC_NUMERIC=it_IT.UTF-8;LC_TIME=en_US.UTF-8;LC_COLLATE=en_US.UTF-8;LC_MONETARY=it_IT.UTF-8;LC_MESSAGES=en_US.UTF-8;LC_PAPER=it_IT.UTF-8;LC_NAME=it_IT.UTF-8;LC_ADDRESS=it_IT.UTF-8;LC_TELEPHONE=it_IT.UTF-8;LC_MEASUREMENT=it_IT.UTF-8;LC_IDENTIFICATION=it_IT.UTF-8

<<< setup, at 0s, took 1,54878e+09s


<<< generate, at 0s, took 0,00682306s

CPXPARAM_TimeLimit                               80
Tried aggregator 1 time.
MIP Presolve eliminated 19 rows and 19 columns.
Reduced MIP has 441 rows, 781 columns, and 2304 nonzeros.
Reduced MIP has 400 binaries, 381 generals, 0 SOSs, and 0 indicators.
Presolve time = 0,00 sec. (1,39 ticks)
Found incumbent of value 104,172340 after 0,00 sec. (3,73 ticks)
Probing fixed 19 vars, tightened 0 bounds.
Probing time = 0,00 sec. (3,11 ticks)
Cover probing fixed 0 vars, tightened 361 bounds.
Tried aggregator 1 time.
MIP Presolve eliminated 21 rows and 39 columns.
MIP Presolve modified 362 coefficients.
Reduced MIP has 420 rows, 742 columns, and 2206 nonzeros.
Reduced MIP has 381 binaries, 361 generals, 0 SOSs, and 0 indicators.
Presolve time = 0,00 sec. (2,39 ticks)
Probing time = 0,00 sec. (2,68 ticks)
Clique table members: 40.
MIP emphasis: balance optimality and feasibility.
MIP search method: dynamic search.
Parallel mode: deterministic, using up to 4 threads.
Root relaxation solution time = 0,00 sec. (4,00 ticks)

        Nodes                                         Cuts/
   Node  Left     Objective  IInf  Best Integer    Best Bound    ItCnt     Gap

*     0+    0                          104,1723        0,0000           100,00%
      0     0       26,9215    44      104,1723       26,9215      265   74,16%
      0     0       27,8196    77      104,1723      Cuts: 57      370   73,29%
      0     0       34,4638    90      104,1723      Cuts: 44      500   66,92%
*     0+    0                           36,6385       34,4638             5,94%
      0     0       34,8748    97       36,6385      Cuts: 24      661    4,81%

Repeating presolve.
Tried aggregator 2 times.
MIP Presolve eliminated 179 rows and 369 columns.
Aggregator did 32 substitutions.
Reduced MIP has 209 rows, 341 columns, and 1261 nonzeros.
Reduced MIP has 159 binaries, 182 generals, 0 SOSs, and 0 indicators.
Presolve time = 0,00 sec. (1,32 ticks)
Probing time = 0,00 sec. (0,62 ticks)
Tried aggregator 1 time.
Reduced MIP has 209 rows, 341 columns, and 1261 nonzeros.
Reduced MIP has 159 binaries, 182 generals, 0 SOSs, and 0 indicators.
Presolve time = 0,00 sec. (0,81 ticks)
Represolve time = 0,01 sec. (4,57 ticks)
Probing time = 0,00 sec. (0,62 ticks)
Clique table members: 33.
MIP emphasis: balance optimality and feasibility.
MIP search method: dynamic search.
Parallel mode: deterministic, using up to 4 threads.
Root relaxation solution time = 0,01 sec. (5,40 ticks)

        Nodes                                         Cuts/
   Node  Left     Objective  IInf  Best Integer    Best Bound    ItCnt     Gap

*     0+    0                           36,6385       34,8748             4,81%
      0     0       34,8748    92       36,6385       34,8748     1046    4,81%
*     0+    0                           36,6253       34,8748             4,78%
      0     0       35,0579    93       36,6253      Cuts: 35     1099    4,28%
      0     0       35,1354    92       36,6253      Cuts: 28     1159    4,07%
      0     0       35,1676    92       36,6253       Cuts: 9     1180    3,98%
*     0+    0                           35,5371       35,1676             1,04%
      0     0        cutoff             35,5371       35,5371     1220    0,00%
Elapsed time = 0,46 sec. (305,86 ticks, tree = 0,01 MB, solutions = 4)

Cover cuts applied:  8
Implied bound cuts applied:  18
Flow cuts applied:  15
Mixed integer rounding cuts applied:  9
Multi commodity flow cuts applied:  6
Lift and project cuts applied:  7
Gomory fractional cuts applied:  1

Root node processing (before b&c):
  Real time             =    0,46 sec. (305,92 ticks)
Parallel b&c, 4 threads:
  Real time             =    0,00 sec. (0,00 ticks)
  Sync time (average)   =    0,00 sec.
  Wait time (average)   =    0,00 sec.
                          ------------
Total (root+branch&cut) =    0,46 sec. (305,92 ticks)

<<< solve, at 1,35s, took 0,46457s


OBJECTIVE: 35.53715
01/29/2019 17:11:58 704
solving time ~= 468.913085938
Done
 [[0 0 0 0 0 0 0 0 0 0 0 13 0 0 0 0 0 0 0 0]
         [14 0 0 0 0 0 0 0 0 0 0 0 0 0 0 0 0 0 0 0]
         [0 0 0 0 0 0 0 0 16 0 0 0 0 0 0 0 0 0 0 0]
         [0 0 17 0 0 0 0 0 0 0 0 0 0 0 0 0 0 0 0 0]
         [0 0 0 18 0 0 0 0 0 0 0 0 0 0 0 0 0 0 0 0]
         [0 0 0 0 19 0 0 0 0 0 0 0 0 0 0 0 0 0 0 0]
         [0 0 0 0 0 20 0 0 0 0 0 0 0 0 0 0 0 0 0 0]
         [0 0 0 0 0 0 1 0 0 0 0 0 0 0 0 0 0 0 0 0]
         [0 15 0 0 0 0 0 0 0 0 0 0 0 0 0 0 0 0 0 0]
         [0 0 0 0 0 0 0 2 0 0 0 0 0 0 0 0 0 0 0 0]
         [0 0 0 0 0 0 0 0 0 3 0 0 0 0 0 0 0 0 0 0]
         [0 0 0 0 0 0 0 0 0 0 0 0 12 0 0 0 0 0 0 0]
         [0 0 0 0 0 0 0 0 0 0 0 0 0 0 0 0 0 0 11 0]
         [0 0 0 0 0 0 0 0 0 0 0 0 0 0 8 0 0 0 0 0]
         [0 0 0 0 0 0 0 0 0 0 0 0 0 0 0 0 0 7 0 0]
         [0 0 0 0 0 0 0 0 0 0 0 0 0 0 0 0 5 0 0 0]
         [0 0 0 0 0 0 0 0 0 0 4 0 0 0 0 0 0 0 0 0]
         [0 0 0 0 0 0 0 0 0 0 0 0 0 0 0 6 0 0 0 0]
         [0 0 0 0 0 0 0 0 0 0 0 0 0 0 0 0 0 0 0 10]
         [0 0 0 0 0 0 0 0 0 0 0 0 0 9 0 0 0 0 0 0]]

<<< post process, at 1,35s, took 0,000970125s

// solution (optimal) with objective 35.5371453168463
// Quality Incumbent solution:
// MILP objective                                 3,5537145317e+01
// MILP solution norm |x| (Total, Max)            2,30000e+02  2,00000e+01
// MILP solution error (Ax=b) (Total, Max)        0,00000e+00  0,00000e+00
// MILP x bound error (Total, Max)                0,00000e+00  0,00000e+00
// MILP x integrality error (Total, Max)          0,00000e+00  0,00000e+00
// MILP slack bound error (Total, Max)            0,00000e+00  0,00000e+00
// 

y = [[0
             0 0 0 0 0 0 0 0 0 0 1 0 0 0 0 0 0 0 0]
             [1 0 0 0 0 0 0 0 0 0 0 0 0 0 0 0 0 0 0 0]
             [0 0 0 0 0 0 0 0 1 0 0 0 0 0 0 0 0 0 0 0]
             [0 0 1 0 0 0 0 0 0 0 0 0 0 0 0 0 0 0 0 0]
             [0 0 0 1 0 0 0 0 0 0 0 0 0 0 0 0 0 0 0 0]
             [0 0 0 0 1 0 0 0 0 0 0 0 0 0 0 0 0 0 0 0]
             [0 0 0 0 0 1 0 0 0 0 0 0 0 0 0 0 0 0 0 0]
             [0 0 0 0 0 0 1 0 0 0 0 0 0 0 0 0 0 0 0 0]
             [0 1 0 0 0 0 0 0 0 0 0 0 0 0 0 0 0 0 0 0]
             [0 0 0 0 0 0 0 1 0 0 0 0 0 0 0 0 0 0 0 0]
             [0 0 0 0 0 0 0 0 0 1 0 0 0 0 0 0 0 0 0 0]
             [0 0 0 0 0 0 0 0 0 0 0 0 1 0 0 0 0 0 0 0]
             [0 0 0 0 0 0 0 0 0 0 0 0 0 0 0 0 0 0 1 0]
             [0 0 0 0 0 0 0 0 0 0 0 0 0 0 1 0 0 0 0 0]
             [0 0 0 0 0 0 0 0 0 0 0 0 0 0 0 0 0 1 0 0]
             [0 0 0 0 0 0 0 0 0 0 0 0 0 0 0 0 1 0 0 0]
             [0 0 0 0 0 0 0 0 0 0 1 0 0 0 0 0 0 0 0 0]
             [0 0 0 0 0 0 0 0 0 0 0 0 0 0 0 1 0 0 0 0]
             [0 0 0 0 0 0 0 0 0 0 0 0 0 0 0 0 0 0 0 1]
             [0 0 0 0 0 0 0 0 0 0 0 0 0 1 0 0 0 0 0 0]];
x = [[0 0 0 0 0 0 0 0 0 0 0 13 0 0 0 0 0 0 0 0]
             [14 0 0 0 0 0 0 0 0 0 0 0 0 0 0 0 0 0 0 0]
             [0 0 0 0 0 0 0 0 16 0 0 0 0 0 0 0 0 0 0 0]
             [0 0 17 0 0 0 0 0 0 0 0 0 0 0 0 0 0 0 0 0]
             [0 0 0 18 0 0 0 0 0 0 0 0 0 0 0 0 0 0 0 0]
             [0 0 0 0 19 0 0 0 0 0 0 0 0 0 0 0 0 0 0 0]
             [0 0 0 0 0 20 0 0 0 0 0 0 0 0 0 0 0 0 0 0]
             [0 0 0 0 0 0 1 0 0 0 0 0 0 0 0 0 0 0 0 0]
             [0 15 0 0 0 0 0 0 0 0 0 0 0 0 0 0 0 0 0 0]
             [0 0 0 0 0 0 0 2 0 0 0 0 0 0 0 0 0 0 0 0]
             [0 0 0 0 0 0 0 0 0 3 0 0 0 0 0 0 0 0 0 0]
             [0 0 0 0 0 0 0 0 0 0 0 0 12 0 0 0 0 0 0 0]
             [0 0 0 0 0 0 0 0 0 0 0 0 0 0 0 0 0 0 11 0]
             [0 0 0 0 0 0 0 0 0 0 0 0 0 0 8 0 0 0 0 0]
             [0 0 0 0 0 0 0 0 0 0 0 0 0 0 0 0 0 7 0 0]
             [0 0 0 0 0 0 0 0 0 0 0 0 0 0 0 0 5 0 0 0]
             [0 0 0 0 0 0 0 0 0 0 4 0 0 0 0 0 0 0 0 0]
             [0 0 0 0 0 0 0 0 0 0 0 0 0 0 0 6 0 0 0 0]
             [0 0 0 0 0 0 0 0 0 0 0 0 0 0 0 0 0 0 0 10]
             [0 0 0 0 0 0 0 0 0 0 0 0 0 9 0 0 0 0 0 0]];

<<< done, at 1,35s, took 0,00137591s

